790 910 360 479
817 937 388 508
820 940 399 519
817 937 369 489
761 881 419 539
805 925 387 507
732 852 395 515
779 899 414 534
796 916 387 507
807 927 428 548
756 876 388 508
638 758 412 532
880 1000 435 555
774 894 397 517
994 1114 362 482
960 1080 397 517
856 976 371 491
874 994 370 490
773 893 404 524
753 873 405 525
832 952 368 488
666 786 360 480
707 827 377 497
808 928 391 511
767 887 369 489
749 869 409 529
740 860 360 462
752 872 412 532
726 846 425 545
778 898 389 509
889 1009 416 536
757 877 460 580
703 823 367 487
691 811 398 518
825 945 389 509
810 930 467 587
726 846 360 451
999 1119 375 495
904 1024 360 451
775 895 434 554
732 852 360 465
862 982 368 488
891 1011 415 535
783 903 373 493
867 987 453 573
803 923 419 539
847 967 420 540
913 1033 455 575
786 906 360 467
758 878 394 514
